(set-logic QF_S)
(declare-fun var0 () String)
(assert (str.in.re var0 (re.++ (re.union (re.union (str.to.re "0") (str.to.re "111")) (re.union (str.to.re "222") (str.to.re "3"))) (re.++ (re.union (re.* (str.to.re "444")) (re.* (str.to.re "5"))) (re.++ (re.+ (re.+ (str.to.re "66"))) (re.++ (re.union (re.* (str.to.re "77")) (re.* (str.to.re "88"))) (re.++ (re.+ (re.union (str.to.re "9") (str.to.re "aa"))) (re.++ (re.* (re.* (str.to.re "bb"))) (re.++ (re.+ (re.+ (str.to.re "c"))) (re.++ (re.* (re.union (str.to.re "d") (str.to.re "e"))) (re.++ (re.union (re.* (str.to.re "fff")) (re.* (str.to.re "ggg"))) (re.union (re.* (str.to.re "hh")) (re.* (str.to.re "i"))))))))))))))
(assert (<= 151 (str.len var0)))
(check-sat)